
Gurobi 13.0.0 (linux64) logging started Thu Jan 15 06:43:44 2026

Set parameter LogFile to value "../experiments/network-n_50_s_0_rp_0-app_set-id_49_21_apps/submip_40_epr1_model_gurobi.log"
Set parameter TimeLimit to value 8.3103752602699387e+02
Gurobi Optimizer version 13.0.0 build v13.0.0rc1 (linux64 - "Ubuntu 24.04.3 LTS")

CPU model: Intel(R) Core(TM) Ultra 7 165H, instruction set [SSE2|AVX|AVX2]
Thread count: 22 physical cores, 22 logical processors, using up to 22 threads

Non-default parameters:
TimeLimit  8.3103752602699387e+02
LogToConsole  0

Academic license 2539022 - for non-commercial use only - registered to al___@studenti.unimi.it
Optimize a model with 34498 rows, 6800 columns and 78248 nonzeros (Min)
Model fingerprint: 0xaa107927
Model has 6800 linear objective coefficients
Model has 166 quadratic constraints
Variable types: 0 continuous, 6800 integer (6800 binary)
Coefficient statistics:
  Matrix range     [1e+00, 9e+02]
  QMatrix range    [5e+01, 2e+02]
  Objective range  [1e+01, 2e+02]
  Bounds range     [1e+00, 1e+00]
  RHS range        [1e+00, 1e+09]
  QRHS range       [1e+02, 6e+02]
Presolve removed 34068 rows and 5836 columns
Presolve time: 0.09s
Presolved: 5591 rows, 5947 columns, 34128 nonzeros
Variable types: 0 continuous, 5947 integer (5947 binary)

Root relaxation: objective 5.194913e+03, 784 iterations, 0.03 seconds (0.05 work units)

    Nodes    |    Current Node    |     Objective Bounds      |     Work
 Expl Unexpl |  Obj  Depth IntInf | Incumbent    BestBd   Gap | It/Node Time

     0     0 5194.91287    0  129          - 5194.91287      -     -    0s
     0     0 infeasible    0               - infeasible      -     -    0s

Cutting planes:
  Gomory: 7
  Cover: 28
  Implied bound: 22
  Clique: 19
  MIR: 20
  Knapsack: 3
  StrongCG: 19
  GUB cover: 5
  Zero half: 9
  RLT: 35
  Relax-and-lift: 27
  BQP: 9

Explored 1 nodes (947 simplex iterations) in 0.44 seconds (0.48 work units)
Thread count was 22 (of 22 available processors)

Solution count 0

Model is infeasible
Best objective -, best bound -, gap -

User-callback calls 929, time in user-callback 0.00 sec
